c description: Random 3-CNF over 16 variables and 32 clauses
p cnf 16 32
-1 10 11 0
-5 8 -10 0
-9 -13 -15 0
6 -11 -12 0
4 5 11 0
4 9 15 0
3 -8 -15 0
-3 -11 -16 0
4 -11 15 0
-7 -11 -15 0
9 14 -16 0
-2 9 -13 0
4 -10 12 0
3 -8 -14 0
-4 -8 -9 0
-1 11 15 0
-3 5 -10 0
1 2 16 0
-1 -9 -11 0
-3 -7 -10 0
1 -8 -15 0
-9 10 -14 0
-2 4 6 0
4 -6 -16 0
-3 -9 11 0
1 -6 11 0
1 -5 6 0
1 -2 15 0
-9 12 16 0
-5 -9 -12 0
-1 -5 -9 0
1 -10 14 0